94 34 84 17 9 70 16 43 63 56 12 75 42 97 65 1 49 58 50 2 62 61 89 13 78 32 80 52 44 14 91 29 26 76 57 55 66 64 71 37 87 11 8 6 15 98 68 48 22 30 31 90 59 41 93 60 53 73 82 35 40 88 96 28 21 38 3 77 4 7 83 39 47 25 5 46 33 45 36 99 24 69 27 95 18 10 23 67 81 86 0 79 19 54 92 74 72 20 51 85